Gurobi Optimizer version 9.1.2 build v9.1.2rc0 (linux64)
Thread count: 36 physical cores, 72 logical processors, using up to 32 threads
Optimize a model with 12 rows, 57 columns and 590 nonzeros
Model fingerprint: 0xf32eec78
Model has 47 quadratic constraints
Coefficient statistics:
  Matrix range     [2e-05, 3e+00]
  QMatrix range    [1e+00, 1e+00]
  QLMatrix range   [1e+00, 1e+00]
  Objective range  [8e-03, 7e-01]
  Bounds range     [1e+00, 1e+00]
  RHS range        [1e+00, 1e+00]
Presolve removed 9 rows and 0 columns

Continuous model is non-convex -- solving as a MIP.

Presolve removed 9 rows and 0 columns
Presolve time: 0.00s
Presolved: 189 rows, 57 columns, 443 nonzeros
Presolved model has 47 bilinear constraint(s)
Variable types: 57 continuous, 0 integer (0 binary)

Root relaxation: objective -1.743721e+00, 44 iterations, 0.00 seconds

    Nodes    |    Current Node    |     Objective Bounds      |     Work
 Expl Unexpl |  Obj  Depth IntInf | Incumbent    BestBd   Gap | It/Node Time

     0     0   -1.74372    0   38          -   -1.74372      -     -    0s
H    0     0                       0.6147548   -1.74372   384%     -    0s
     0     0   -1.64739    0    1    0.61475   -1.64739   368%     -    0s
H    0     0                      -1.6450460   -1.64739  0.14%     -    0s
     0     0     cutoff    0        -1.64505   -1.64505  0.00%     -    0s

Cutting planes:
  RLT: 25
  BQP: 3

Explored 1 nodes (76 simplex iterations) in 0.01 seconds
Thread count was 32 (of 72 available processors)

Solution count 2: -1.64505 0.614755 
No other solutions better than -1.64505

Optimal solution found (tolerance 1.00e-04)
Best objective -1.645045978473e+00, best bound -1.645045978473e+00, gap 0.0000%

User-callback calls 78, time in user-callback 0.00 sec
Gurobi Optimizer version 9.1.2 build v9.1.2rc0 (linux64)
Thread count: 36 physical cores, 72 logical processors, using up to 32 threads
Optimize a model with 60 rows, 312 columns and 16100 nonzeros
Model fingerprint: 0x1ca73756
Model has 262 quadratic constraints
Coefficient statistics:
  Matrix range     [4e-07, 7e+00]
  QMatrix range    [1e+00, 1e+00]
  QLMatrix range   [1e+00, 1e+00]
  Objective range  [2e-03, 1e+00]
  Bounds range     [1e+00, 1e+00]
  RHS range        [1e+00, 1e+00]
Presolve removed 14 rows and 0 columns

Continuous model is non-convex -- solving as a MIP.

Presolve removed 14 rows and 0 columns
Presolve time: 0.01s
Presolved: 1082 rows, 312 columns, 13759 nonzeros
Presolved model has 262 bilinear constraint(s)
Variable types: 312 continuous, 0 integer (0 binary)

Root relaxation: objective -1.807645e+01, 319 iterations, 0.02 seconds

    Nodes    |    Current Node    |     Objective Bounds      |     Work
 Expl Unexpl |  Obj  Depth IntInf | Incumbent    BestBd   Gap | It/Node Time

     0     0  -18.07645    0  156          -  -18.07645      -     -    0s
     0     0  -17.01233    0   83          -  -17.01233      -     -    0s
     0     0  -16.97429    0   71          -  -16.97429      -     -    0s
     0     0  -16.92458    0  122          -  -16.92458      -     -    0s
     0     0  -16.92227    0  122          -  -16.92227      -     -    0s
     0     0  -16.90716    0  122          -  -16.90716      -     -    0s
     0     0  -16.90388    0   80          -  -16.90388      -     -    0s
     0     0  -16.89792    0  122          -  -16.89792      -     -    0s
     0     0  -16.89642    0   80          -  -16.89642      -     -    0s
     0     0  -16.89639    0   80          -  -16.89639      -     -    0s
     0     0  -16.89618    0   80          -  -16.89618      -     -    0s
H    0     0                     -16.0489383  -16.89618  5.28%     -    0s
     0     2  -16.89618    0   80  -16.04894  -16.89618  5.28%     -    0s
* 1129   661              44     -16.0592984  -16.42676  2.29%  49.8    1s
* 1985  1151              38     -16.0593816  -16.41969  2.24%  40.2    1s
* 2237  1236              49     -16.1320919  -16.41969  1.78%  38.3    1s
* 3335  1420              40     -16.1321719  -16.33973  1.29%  35.8    2s
* 3337  1420              41     -16.1321880  -16.33973  1.29%  35.8    2s
* 3338  1420              41     -16.1321880  -16.33973  1.29%  35.8    2s
* 3705  1498              40     -16.1322815  -16.33973  1.29%  34.8    2s
* 3706  1498              40     -16.1323280  -16.33973  1.29%  34.8    2s
* 3896  1560              45     -16.1323804  -16.33973  1.29%  34.3    2s
* 4097  1576              45     -16.1323808  -16.32773  1.21%  33.8    2s
* 4099  1576              45     -16.1323814  -16.32773  1.21%  33.8    2s
* 4100  1576              45     -16.1323819  -16.32773  1.21%  33.8    2s
* 4102  1576              44     -16.1328301  -16.32773  1.21%  33.8    2s
* 4104  1576              45     -16.1328367  -16.32773  1.21%  33.7    2s
* 5478  1844              48     -16.1329017  -16.32773  1.21%  32.1    3s
* 5479  1844              48     -16.1330192  -16.32773  1.21%  32.1    3s
* 5723  1900              41     -16.1342659  -16.32773  1.20%  31.9    3s
* 5724  1900              41     -16.1342870  -16.32773  1.20%  31.9    3s
  9630   684  -16.17513   27   49  -16.13429  -16.32773  1.20%  34.3    5s
*11597   879              57     -16.1343460  -16.29931  1.02%  33.4    5s
*11875   889              59     -16.1343543  -16.29931  1.02%  33.2    5s
*11876   889              59     -16.1343544  -16.29931  1.02%  33.2    5s
*12827   943              60     -16.1344299  -16.29820  1.02%  32.5    5s
*12828   943              60     -16.1344344  -16.29820  1.02%  32.5    5s
*12832   943              60     -16.1345269  -16.29820  1.01%  32.5    5s
*12835   943              60     -16.1345590  -16.29820  1.01%  32.5    5s
*13513  1028              64     -16.1353029  -16.26934  0.83%  32.1    5s
*13514  1028              64     -16.1353032  -16.26934  0.83%  32.1    5s
*13519  1028              64     -16.1353592  -16.26934  0.83%  32.1    5s
*13520  1028              64     -16.1353593  -16.26934  0.83%  32.1    5s
*14810  1153              62     -16.1404568  -16.24858  0.67%  31.6    6s
*14812  1153              63     -16.1404609  -16.24858  0.67%  31.6    6s
*14813  1153              63     -16.1404611  -16.24858  0.67%  31.6    6s
*14817  1153              63     -16.1404624  -16.24858  0.67%  31.6    6s
*14818  1153              63     -16.1404626  -16.24858  0.67%  31.6    6s
*16118  1382              58     -16.1407449  -16.23814  0.60%  31.2    6s
*17213  1543              56     -16.1408084  -16.22711  0.53%  30.7    6s
*17215  1543              56     -16.1408164  -16.22711  0.53%  30.7    6s
*17674  1665              60     -16.1414091  -16.22711  0.53%  30.4    6s
*17675  1665              60     -16.1414199  -16.22711  0.53%  30.4    6s
*17680  1665              61     -16.1414314  -16.22711  0.53%  30.4    6s
*17682  1665              60     -16.1414315  -16.22711  0.53%  30.4    6s
*18564  1787              76     -16.1414710  -16.21884  0.48%  30.0    6s
*18819  1771              70     -16.1476958  -16.21884  0.44%  29.9    6s
*18820  1771              70     -16.1476961  -16.21884  0.44%  29.9    6s
*19574  1709              71     -16.1504251  -16.21264  0.39%  29.6    7s
*19575  1709              71     -16.1504253  -16.21264  0.39%  29.6    7s
*19770  1709              72     -16.1504300  -16.21264  0.39%  29.5    7s
*19773  1709              73     -16.1504300  -16.21264  0.39%  29.5    7s
*27238  1586              64     -16.1504696  -16.18111  0.19%  27.6    8s
*27239  1586              64     -16.1504754  -16.18111  0.19%  27.6    8s
*27245  1586              64     -16.1504769  -16.18111  0.19%  27.6    8s
*27248  1586              64     -16.1504791  -16.18111  0.19%  27.6    8s
*32502  1476              71     -16.1504988  -16.16467  0.09%  25.9    9s
*36535  1545              62     -16.1505307  -16.15783  0.05%  24.4    9s
 36560  1563  -16.15239   42   21  -16.15053  -16.15761  0.04%  24.4   10s
*37014  1563              60     -16.1505346  -16.15714  0.04%  24.2   10s
*38678  1580              64     -16.1505406  -16.15631  0.04%  23.7   10s
*38680  1580              65     -16.1505512  -16.15631  0.04%  23.7   10s
*40814  1649              63     -16.1505581  -16.15523  0.03%  22.9   10s
*40820  1649              64     -16.1505716  -16.15523  0.03%  22.9   10s
*43018  1763              68     -16.1505726  -16.15426  0.02%  22.3   10s
*43023  1763              69     -16.1505731  -16.15426  0.02%  22.3   10s
*44067  1761              65     -16.1505892  -16.15360  0.02%  22.0   11s
*44068  1761              65     -16.1505984  -16.15360  0.02%  22.0   11s

Explored 50327 nodes (1016561 simplex iterations) in 11.96 seconds
Thread count was 32 (of 72 available processors)

Solution count 10: -16.1506 -16.1506 -16.1506 ... -16.1505

Optimal solution found (tolerance 1.00e-04)
Best objective -1.615059840628e+01, best bound -1.615186262627e+01, gap 0.0078%

User-callback calls 101887, time in user-callback 0.02 sec



objective value: -16.15059840627942
objective bound: -16.151862626270546
x_opt: [1.0, 0.9179557086849112, 0.0, 0.3726023883945661, 0.0, 0.0, 1.0, 0.0, 0.0, 0.0, 1.0, 0.0, 1.0, 1.0, 0.3836230857840141, 1.0, 0.0, 1.0, 0.0, 0.0, 0.0, 0.24750280930691593, 0.0, 0.5222177248315747, 0.0, 0.7549160671772992, 0.0, 1.0, 0.0, 0.0, 1.0, 1.0, 0.0, 0.5033367054446786, 1.0, 0.8890328301892169, 0.0, 1.0, 0.0, 1.0, 1.0, 0.0, 0.9865534291318151, 0.09333847452881057, 0.04193541175667911, 0.0, 0.4003656662039608, 0.4188798911753301, 0.24562343480725846, 0.0]
GUROBI solution time: 11.960182905197144




